GLPSOL--GLPK LP/MIP Solver 5.0
Parameter(s) specified in the command line:
 --lp ../modeles/10_449.lp --log 10_449.log
Reading problem data from '../modeles/10_449.lp'...
4531 rows, 9000 columns, 31480 non-zeros
4490 integer variables, all of which are binary
13547 lines were read
GLPK Integer Optimizer 5.0
4531 rows, 9000 columns, 31480 non-zeros
4490 integer variables, all of which are binary
Preprocessing...
4460 constraint coefficient(s) were reduced
4531 rows, 8990 columns, 31470 non-zeros
4490 integer variables, all of which are binary
Scaling...
 A: min|aij| =  1.984e-05  max|aij| =  4.000e+00  ratio =  2.016e+05
GM: min|aij| =  4.719e-02  max|aij| =  2.119e+01  ratio =  4.490e+02
EQ: min|aij| =  2.227e-03  max|aij| =  1.000e+00  ratio =  4.490e+02
2N: min|aij| =  1.953e-03  max|aij| =  1.775e+00  ratio =  9.089e+02
Constructing initial basis...
Size of triangular part is 4531
Solving LP relaxation...
GLPK Simplex Optimizer 5.0
4531 rows, 8990 columns, 31470 non-zeros
      0: obj =   2.000000000e+01 inf =   4.950e+01 (21)
Perturbing LP to avoid stalling [199]...
    229: obj =   4.999032738e-01 inf =   0.000e+00 (0)
Removing LP perturbation [646]...
*   646: obj =  -3.162273306e+00 inf =   5.010e-14 (0)
OPTIMAL LP SOLUTION FOUND
Integer optimization begins...
Long-step dual simplex will be used
+   646: mip =     not found yet >=              -inf        (1; 0)
+   648: >>>>>  -3.162273306e+00 >=  -3.162273306e+00 < 0.1% (3; 0)
+   648: mip =  -3.162273306e+00 >=     tree is empty   0.0% (0; 5)
INTEGER OPTIMAL SOLUTION FOUND
Time used:   0.2 secs
Memory used: 13.1 Mb (13694824 bytes)
